(set-logic ALL)
(set-option :produce-models true)
(declare-sort BoundSet 0)
(declare-sort UnboundSet 0)
(set-option :finite-model-find true)
(declare-fun IsBlond (BoundSet) Bool)
(declare-fun HasTattooOfAnAngel (BoundSet) Bool)
(declare-fun IsOnHerArm (BoundSet) Bool)
(declare-fun IsWithTattoo (BoundSet) Bool)
(declare-fun WalksDownTheStreet (BoundSet BoundSet) Bool)
(assert (not (=> (exists ((c BoundSet)) (exists ((a BoundSet)) (exists ((b BoundSet)) (and (IsBlond a) (and (HasTattooOfAnAngel b) (IsOnHerArm c)))))) (exists ((f BoundSet)) (exists ((e BoundSet)) (exists ((d BoundSet)) (and (IsWithTattoo d) (WalksDownTheStreet e f))))))))
(check-sat)
(get-model)